results_rootrelaxation/bin012_050_028.srr.sol
solution status: optimal solution found
objective value:                                    0
_var37_                             0.251327788355546 	(obj:0)
_var102_                             0.06548752379998 	(obj:0)
_var179_                            0.388666199017936 	(obj:0)
_var331_                           0.0746066740154337 	(obj:0)
_var401_                           0.0583224772021244 	(obj:0)
_var512_                            0.119751478104019 	(obj:0)
_var595_                           0.0134783044393219 	(obj:0)
_var646_                           0.0145305140795661 	(obj:0)
_var684_                          0.00145305140795682 	(obj:0)
_var685_                           0.0332197614991467 	(obj:0)
_var686_                           0.0973043391121359 	(obj:0)
_var689_                            0.436416474596654 	(obj:0)
_var704_                            0.423739853692756 	(obj:0)
_var708_                            0.234542539332598 	(obj:0)
_var712_                           0.0475498546948598 	(obj:0)
_var717_                          0.00310652369977191 	(obj:0)
_var720_                            0.114941376891474 	(obj:0)
_var723_                           0.0961018138089964 	(obj:0)
_var730_                            0.309349634231888 	(obj:0)
_var732_                             0.25237999799579 	(obj:0)
_var734_                             0.09089087082874 	(obj:0)
_var735_                            0.367120954003408 	(obj:0)
_var740_                            0.290660386812307 	(obj:0)
_var742_                           0.0139793566489635 	(obj:0)
_var745_                            0.160086180980058 	(obj:0)
_var749_                           0.0859805591742669 	(obj:0)
_var753_                            0.311103316965628 	(obj:0)
_var756_                             0.22968233289909 	(obj:0)
_var761_                            0.271470087183083 	(obj:0)
_var763_                            0.317667100911915 	(obj:0)
_var768_                            0.170508066940574 	(obj:0)
_var769_                            0.456107826435514 	(obj:0)
_var771_                            0.225423389117144 	(obj:0)
_var773_                            0.108177172061331 	(obj:0)
_var774_                           0.0145305140795662 	(obj:0)
_var775_                            0.211694558573004 	(obj:0)
_var776_                            0.409309550055115 	(obj:0)
_var780_                           0.0693456258142106 	(obj:0)
_var783_                            0.197013728830543 	(obj:0)
_var786_                           0.0810201422988267 	(obj:0)
_var788_                            0.380448942779838 	(obj:0)
_var789_                            0.314410261549256 	(obj:0)
_var790_                           0.0145305140795661 	(obj:0)
_var792_                            0.320673414169757 	(obj:0)
_var793_                            0.280489026956607 	(obj:0)
_var798_                           0.0135785148812519 	(obj:0)
_var799_                            0.183134582623508 	(obj:0)
_var801_                            0.290660386812307 	(obj:0)
_var802_                            0.105621805792164 	(obj:0)
_var804_                            0.115542639543042 	(obj:0)
_var805_                            0.392524301032167 	(obj:0)
_var808_                             0.20893877141998 	(obj:0)
_var809_                            0.180929952901092 	(obj:0)
_var812_                            0.157180078164144 	(obj:0)
_var814_                            0.127267261248621 	(obj:0)
_var815_                            0.204479406754184 	(obj:0)
_var816_                            0.134432307846478 	(obj:0)
_var817_                              0.1137889568093 	(obj:0)
_var822_                           0.0467481711594346 	(obj:0)
_var824_                            0.117596953602565 	(obj:0)
_var825_                            0.128319470888866 	(obj:0)
_var829_                           0.0266058723318976 	(obj:0)
_var831_                            0.024050506062732 	(obj:0)
