results_rootrelaxation/bin012_050_028.srr.log
SCIP version 8.0.3.5 [precision: 8 byte] [memory: block] [mode: optimized] [LP solver: Soplex 6.0.1.3] [GitHash: 438792519e]
Copyright (c) 2002-2023 Zuse Institute Berlin (ZIB)

External libraries: 
  Readline 8.1         GNU library for command line editing (gnu.org/s/readline)
  Soplex 6.0.1.3       Linear Programming Solver developed at Zuse Institute Berlin (soplex.zib.de) [GitHash: 713be0fe]
  CppAD 20180000.0     Algorithmic Differentiation of C++ algorithms developed by B. Bell (github.com/coin-or/CppAD)
  ZLIB 1.2.11          General purpose compression library by J. Gailly and M. Adler (zlib.net)
  bliss 0.77           Computing Graph Automorphism Groups by T. Junttila and P. Kaski (www.tcs.hut.fi/Software/bliss/)

user parameter file <scip.set> not found - using default parameters

srr/relaxation = TRUE

read problem <instances/bin012_050_028.srr>
============

Original problem: 
original problem has 0 variables (0 bin, 0 int, 0 impl, 0 cont) and 77 constraints

presolving:
presolving (1 rounds: 1 fast, 1 medium, 1 exhaustive):
 0 deleted vars, 0 deleted constraints, 0 added constraints, 0 tightened bounds, 0 added holes, 0 changed sides, 0 changed coefficients
 0 implications, 0 cliques
presolved problem has 0 variables (0 bin, 0 int, 0 impl, 0 cont) and 77 constraints
     77 constraints of type <linear>
Presolving Time: 0.00

 time | node  | left  |LP iter|LP it/n|mem/heur|mdpt |vars |cons |rows |cuts |sepa|confs|strbr|  dualbound   | primalbound  |  gap   | compl. 
  0.0s|     1 |     0 |     1 |     - |   710k |   0 |   1 |  77 |  77 |   0 |  0 |   0 |   0 |      --      |      --      |    Inf | unknown
r 0.0s|     1 |     0 |   768 |     - |simplero|   0 | 645 |  77 |  77 |   0 |  0 |   0 |   0 |      --      | 1.452870e+01 |    Inf | unknown
r 0.0s|     1 |     0 |   790 |     - |simplero|   0 | 656 |  77 |  77 |   0 |  0 |   0 |   0 |      --      | 1.310604e+01 |    Inf | unknown
r 0.0s|     1 |     0 |   832 |     - |simplero|   0 | 667 |  77 |  77 |   0 |  0 |   0 |   0 |      --      | 1.212137e+01 |    Inf | unknown
r 0.0s|     1 |     0 |   858 |     - |simplero|   0 | 678 |  77 |  77 |   0 |  0 |   0 |   0 |      --      | 1.136595e+01 |    Inf | unknown
r 0.0s|     1 |     0 |   868 |     - |simplero|   0 | 678 |  77 |  77 |   0 |  0 |   0 |   0 |      --      | 1.130291e+01 |    Inf | unknown
r 0.1s|     1 |     0 |   930 |     - |simplero|   0 | 689 |  77 |  77 |   0 |  0 |   0 |   0 |      --      | 9.399078e+00 |    Inf | unknown
r 0.1s|     1 |     0 |   954 |     - |simplero|   0 | 689 |  77 |  77 |   0 |  0 |   0 |   0 |      --      | 9.289755e+00 |    Inf | unknown
r 0.1s|     1 |     0 |   957 |     - |simplero|   0 | 689 |  77 |  77 |   0 |  0 |   0 |   0 |      --      | 9.285460e+00 |    Inf | unknown
r 0.1s|     1 |     0 |  1009 |     - |simplero|   0 | 700 |  77 |  77 |   0 |  0 |   0 |   0 |      --      | 7.500654e+00 |    Inf | unknown
r 0.1s|     1 |     0 |  1012 |     - |simplero|   0 | 700 |  77 |  77 |   0 |  0 |   0 |   0 |      --      | 7.498054e+00 |    Inf | unknown
r 0.1s|     1 |     0 |  1014 |     - |simplero|   0 | 700 |  77 |  77 |   0 |  0 |   0 |   0 |      --      | 7.497570e+00 |    Inf | unknown
r 0.1s|     1 |     0 |  1049 |     - |simplero|   0 | 711 |  77 |  77 |   0 |  0 |   0 |   0 |      --      | 6.126206e+00 |    Inf | unknown
r 0.1s|     1 |     0 |  1073 |     - |simplero|   0 | 711 |  77 |  77 |   0 |  0 |   0 |   0 |      --      | 5.877135e+00 |    Inf | unknown
r 0.1s|     1 |     0 |  1090 |     - |simplero|   0 | 711 |  77 |  77 |   0 |  0 |   0 |   0 |      --      | 5.854705e+00 |    Inf | unknown
 time | node  | left  |LP iter|LP it/n|mem/heur|mdpt |vars |cons |rows |cuts |sepa|confs|strbr|  dualbound   | primalbound  |  gap   | compl. 
r 0.1s|     1 |     0 |  1093 |     - |simplero|   0 | 711 |  77 |  77 |   0 |  0 |   0 |   0 |      --      | 5.853595e+00 |    Inf | unknown
r 0.1s|     1 |     0 |  1119 |     - |simplero|   0 | 722 |  77 |  77 |   0 |  0 |   0 |   0 |      --      | 4.979884e+00 |    Inf | unknown
r 0.1s|     1 |     0 |  1140 |     - |simplero|   0 | 722 |  77 |  77 |   0 |  0 |   0 |   0 |      --      | 4.758859e+00 |    Inf | unknown
r 0.1s|     1 |     0 |  1157 |     - |simplero|   0 | 722 |  77 |  77 |   0 |  0 |   0 |   0 |      --      | 4.663357e+00 |    Inf | unknown
r 0.1s|     1 |     0 |  1159 |     - |simplero|   0 | 722 |  77 |  77 |   0 |  0 |   0 |   0 |      --      | 4.662110e+00 |    Inf | unknown
r 0.1s|     1 |     0 |  1186 |     - |simplero|   0 | 733 |  77 |  77 |   0 |  0 |   0 |   0 |      --      | 4.036393e+00 |    Inf | unknown
r 0.1s|     1 |     0 |  1196 |     - |simplero|   0 | 733 |  77 |  77 |   0 |  0 |   0 |   0 |      --      | 3.919723e+00 |    Inf | unknown
r 0.1s|     1 |     0 |  1226 |     - |simplero|   0 | 744 |  77 |  77 |   0 |  0 |   0 |   0 |      --      | 3.128707e+00 |    Inf | unknown
r 0.1s|     1 |     0 |  1234 |     - |simplero|   0 | 744 |  77 |  77 |   0 |  0 |   0 |   0 |      --      | 3.108417e+00 |    Inf | unknown
r 0.1s|     1 |     0 |  1236 |     - |simplero|   0 | 744 |  77 |  77 |   0 |  0 |   0 |   0 |      --      | 3.107722e+00 |    Inf | unknown
r 0.1s|     1 |     0 |  1263 |     - |simplero|   0 | 755 |  77 |  77 |   0 |  0 |   0 |   0 |      --      | 2.596921e+00 |    Inf | unknown
r 0.1s|     1 |     0 |  1268 |     - |simplero|   0 | 755 |  77 |  77 |   0 |  0 |   0 |   0 |      --      | 2.577781e+00 |    Inf | unknown
r 0.1s|     1 |     0 |  1270 |     - |simplero|   0 | 755 |  77 |  77 |   0 |  0 |   0 |   0 |      --      | 2.576724e+00 |    Inf | unknown
r 0.1s|     1 |     0 |  1298 |     - |simplero|   0 | 766 |  77 |  77 |   0 |  0 |   0 |   0 |      --      | 2.326210e+00 |    Inf | unknown
r 0.1s|     1 |     0 |  1319 |     - |simplero|   0 | 766 |  77 |  77 |   0 |  0 |   0 |   0 |      --      | 2.123204e+00 |    Inf | unknown
 time | node  | left  |LP iter|LP it/n|mem/heur|mdpt |vars |cons |rows |cuts |sepa|confs|strbr|  dualbound   | primalbound  |  gap   | compl. 
r 0.1s|     1 |     0 |  1322 |     - |simplero|   0 | 766 |  77 |  77 |   0 |  0 |   0 |   0 |      --      | 2.117528e+00 |    Inf | unknown
r 0.1s|     1 |     0 |  1325 |     - |simplero|   0 | 766 |  77 |  77 |   0 |  0 |   0 |   0 |      --      | 2.114255e+00 |    Inf | unknown
r 0.1s|     1 |     0 |  1355 |     - |simplero|   0 | 777 |  77 |  77 |   0 |  0 |   0 |   0 |      --      | 1.369921e+00 |    Inf | unknown
r 0.1s|     1 |     0 |  1367 |     - |simplero|   0 | 777 |  77 |  77 |   0 |  0 |   0 |   0 |      --      | 1.355475e+00 |    Inf | unknown
r 0.1s|     1 |     0 |  1405 |     - |simplero|   0 | 788 |  77 |  77 |   0 |  0 |   0 |   0 |      --      | 9.716805e-01 |    Inf | unknown
  0.1s|     1 |     0 |  1415 |     - |  3750k |   0 | 788 |  77 |  77 |   0 |  0 |   0 |   0 |      --      | 9.716805e-01 |    Inf | unknown
r 0.1s|     1 |     0 |  1415 |     - |simplero|   0 | 788 |  77 |  77 |   0 |  0 |   0 |   0 |      --      | 9.540951e-01 |    Inf | unknown
r 0.1s|     1 |     0 |  1460 |     - |simplero|   0 | 799 |  77 |  77 |   0 |  0 |   0 |   0 |      --      | 5.575907e-01 |    Inf | unknown
r 0.1s|     1 |     0 |  1466 |     - |simplero|   0 | 799 |  77 |  77 |   0 |  0 |   0 |   0 |      --      | 5.549378e-01 |    Inf | unknown
r 0.1s|     1 |     0 |  1500 |     - |simplero|   0 | 810 |  77 |  77 |   0 |  0 |   0 |   0 |      --      | 2.852026e-01 |    Inf | unknown
r 0.1s|     1 |     0 |  1505 |     - |simplero|   0 | 810 |  77 |  77 |   0 |  0 |   0 |   0 |      --      | 2.679714e-01 |    Inf | unknown
r 0.1s|     1 |     0 |  1529 |     - |simplero|   0 | 821 |  77 |  77 |   0 |  0 |   0 |   0 |      --      | 1.031665e-01 |    Inf | unknown
r 0.1s|     1 |     0 |  1536 |     - |simplero|   0 | 821 |  77 |  77 |   0 |  0 |   0 |   0 |      --      | 9.882641e-02 |    Inf | unknown
r 0.1s|     1 |     0 |  1538 |     - |simplero|   0 | 821 |  77 |  77 |   0 |  0 |   0 |   0 |      --      | 9.812316e-02 |    Inf | unknown
r 0.1s|     1 |     0 |  1554 |     - |simplero|   0 | 832 |  77 |  77 |   0 |  0 |   0 |   0 |      --      | 0.000000e+00 |    Inf | unknown
 time | node  | left  |LP iter|LP it/n|mem/heur|mdpt |vars |cons |rows |cuts |sepa|confs|strbr|  dualbound   | primalbound  |  gap   | compl. 
  0.1s|     1 |     0 |  1554 |     - |  4419k |   0 | 832 |  77 |  77 |   0 |  0 |   0 |   0 | 0.000000e+00 | 0.000000e+00 |   0.00%| unknown
  0.1s|     1 |     0 |  1554 |     - |  4419k |   0 | 832 |  77 |  77 |   0 |  0 |   0 |   0 | 0.000000e+00 | 0.000000e+00 |   0.00%| unknown

SCIP Status        : problem is solved [optimal solution found]
Solving Time (sec) : 0.09
Solving Nodes      : 1
Primal Bound       : +0.00000000000000e+00 (43 solutions)
Dual Bound         : +0.00000000000000e+00
Gap                : 0.00 %

written transformed problem to file <results_rootrelaxation/bin012_050_028.srr.lp>
written transformed problem to file <results_rootrelaxation/bin012_050_028.srr.cip>


SCIP version 8.0.3.5 [precision: 8 byte] [memory: block] [mode: optimized] [LP solver: Soplex 6.0.1.3] [GitHash: 438792519e]
Copyright (c) 2002-2023 Zuse Institute Berlin (ZIB)

External libraries: 
  Readline 8.1         GNU library for command line editing (gnu.org/s/readline)
  Soplex 6.0.1.3       Linear Programming Solver developed at Zuse Institute Berlin (soplex.zib.de) [GitHash: 713be0fe]
  CppAD 20180000.0     Algorithmic Differentiation of C++ algorithms developed by B. Bell (github.com/coin-or/CppAD)
  ZLIB 1.2.11          General purpose compression library by J. Gailly and M. Adler (zlib.net)
  bliss 0.77           Computing Graph Automorphism Groups by T. Junttila and P. Kaski (www.tcs.hut.fi/Software/bliss/)

user parameter file <scip.set> not found - using default parameters

srr/relaxation = TRUE

read problem <instances/bin012_050_028.srr>
============

Original problem: 
original problem has 0 variables (0 bin, 0 int, 0 impl, 0 cont) and 77 constraints

presolving:
presolving (1 rounds: 1 fast, 1 medium, 1 exhaustive):
 0 deleted vars, 0 deleted constraints, 0 added constraints, 0 tightened bounds, 0 added holes, 0 changed sides, 0 changed coefficients
 0 implications, 0 cliques
presolved problem has 0 variables (0 bin, 0 int, 0 impl, 0 cont) and 77 constraints
     77 constraints of type <linear>
Presolving Time: 0.00

 time | node  | left  |LP iter|LP it/n|mem/heur|mdpt |vars |cons |rows |cuts |sepa|confs|strbr|  dualbound   | primalbound  |  gap   | compl. 
  0.0s|     1 |     0 |     1 |     - |   710k |   0 |   1 |  77 |  77 |   0 |  0 |   0 |   0 |      --      |      --      |    Inf | unknown
r 0.0s|     1 |     0 |   768 |     - |simplero|   0 | 645 |  77 |  77 |   0 |  0 |   0 |   0 |      --      | 1.452870e+01 |    Inf | unknown
r 0.0s|     1 |     0 |   790 |     - |simplero|   0 | 656 |  77 |  77 |   0 |  0 |   0 |   0 |      --      | 1.310604e+01 |    Inf | unknown
r 0.1s|     1 |     0 |   832 |     - |simplero|   0 | 667 |  77 |  77 |   0 |  0 |   0 |   0 |      --      | 1.212137e+01 |    Inf | unknown
r 0.1s|     1 |     0 |   858 |     - |simplero|   0 | 678 |  77 |  77 |   0 |  0 |   0 |   0 |      --      | 1.136595e+01 |    Inf | unknown
r 0.1s|     1 |     0 |   868 |     - |simplero|   0 | 678 |  77 |  77 |   0 |  0 |   0 |   0 |      --      | 1.130291e+01 |    Inf | unknown
r 0.1s|     1 |     0 |   930 |     - |simplero|   0 | 689 |  77 |  77 |   0 |  0 |   0 |   0 |      --      | 9.399078e+00 |    Inf | unknown
r 0.1s|     1 |     0 |   954 |     - |simplero|   0 | 689 |  77 |  77 |   0 |  0 |   0 |   0 |      --      | 9.289755e+00 |    Inf | unknown
r 0.1s|     1 |     0 |   957 |     - |simplero|   0 | 689 |  77 |  77 |   0 |  0 |   0 |   0 |      --      | 9.285460e+00 |    Inf | unknown
r 0.1s|     1 |     0 |  1009 |     - |simplero|   0 | 700 |  77 |  77 |   0 |  0 |   0 |   0 |      --      | 7.500654e+00 |    Inf | unknown
r 0.1s|     1 |     0 |  1012 |     - |simplero|   0 | 700 |  77 |  77 |   0 |  0 |   0 |   0 |      --      | 7.498054e+00 |    Inf | unknown
r 0.1s|     1 |     0 |  1014 |     - |simplero|   0 | 700 |  77 |  77 |   0 |  0 |   0 |   0 |      --      | 7.497570e+00 |    Inf | unknown
r 0.1s|     1 |     0 |  1049 |     - |simplero|   0 | 711 |  77 |  77 |   0 |  0 |   0 |   0 |      --      | 6.126206e+00 |    Inf | unknown
r 0.1s|     1 |     0 |  1073 |     - |simplero|   0 | 711 |  77 |  77 |   0 |  0 |   0 |   0 |      --      | 5.877135e+00 |    Inf | unknown
r 0.1s|     1 |     0 |  1090 |     - |simplero|   0 | 711 |  77 |  77 |   0 |  0 |   0 |   0 |      --      | 5.854705e+00 |    Inf | unknown
 time | node  | left  |LP iter|LP it/n|mem/heur|mdpt |vars |cons |rows |cuts |sepa|confs|strbr|  dualbound   | primalbound  |  gap   | compl. 
r 0.1s|     1 |     0 |  1093 |     - |simplero|   0 | 711 |  77 |  77 |   0 |  0 |   0 |   0 |      --      | 5.853595e+00 |    Inf | unknown
r 0.1s|     1 |     0 |  1119 |     - |simplero|   0 | 722 |  77 |  77 |   0 |  0 |   0 |   0 |      --      | 4.979884e+00 |    Inf | unknown
r 0.1s|     1 |     0 |  1140 |     - |simplero|   0 | 722 |  77 |  77 |   0 |  0 |   0 |   0 |      --      | 4.758859e+00 |    Inf | unknown
r 0.1s|     1 |     0 |  1157 |     - |simplero|   0 | 722 |  77 |  77 |   0 |  0 |   0 |   0 |      --      | 4.663357e+00 |    Inf | unknown
r 0.1s|     1 |     0 |  1159 |     - |simplero|   0 | 722 |  77 |  77 |   0 |  0 |   0 |   0 |      --      | 4.662110e+00 |    Inf | unknown
r 0.1s|     1 |     0 |  1186 |     - |simplero|   0 | 733 |  77 |  77 |   0 |  0 |   0 |   0 |      --      | 4.036393e+00 |    Inf | unknown
r 0.1s|     1 |     0 |  1196 |     - |simplero|   0 | 733 |  77 |  77 |   0 |  0 |   0 |   0 |      --      | 3.919723e+00 |    Inf | unknown
r 0.1s|     1 |     0 |  1226 |     - |simplero|   0 | 744 |  77 |  77 |   0 |  0 |   0 |   0 |      --      | 3.128707e+00 |    Inf | unknown
r 0.1s|     1 |     0 |  1234 |     - |simplero|   0 | 744 |  77 |  77 |   0 |  0 |   0 |   0 |      --      | 3.108417e+00 |    Inf | unknown
r 0.1s|     1 |     0 |  1236 |     - |simplero|   0 | 744 |  77 |  77 |   0 |  0 |   0 |   0 |      --      | 3.107722e+00 |    Inf | unknown
r 0.1s|     1 |     0 |  1263 |     - |simplero|   0 | 755 |  77 |  77 |   0 |  0 |   0 |   0 |      --      | 2.596921e+00 |    Inf | unknown
r 0.1s|     1 |     0 |  1268 |     - |simplero|   0 | 755 |  77 |  77 |   0 |  0 |   0 |   0 |      --      | 2.577781e+00 |    Inf | unknown
r 0.1s|     1 |     0 |  1270 |     - |simplero|   0 | 755 |  77 |  77 |   0 |  0 |   0 |   0 |      --      | 2.576724e+00 |    Inf | unknown
r 0.1s|     1 |     0 |  1298 |     - |simplero|   0 | 766 |  77 |  77 |   0 |  0 |   0 |   0 |      --      | 2.326210e+00 |    Inf | unknown
r 0.1s|     1 |     0 |  1319 |     - |simplero|   0 | 766 |  77 |  77 |   0 |  0 |   0 |   0 |      --      | 2.123204e+00 |    Inf | unknown
 time | node  | left  |LP iter|LP it/n|mem/heur|mdpt |vars |cons |rows |cuts |sepa|confs|strbr|  dualbound   | primalbound  |  gap   | compl. 
r 0.1s|     1 |     0 |  1322 |     - |simplero|   0 | 766 |  77 |  77 |   0 |  0 |   0 |   0 |      --      | 2.117528e+00 |    Inf | unknown
r 0.1s|     1 |     0 |  1325 |     - |simplero|   0 | 766 |  77 |  77 |   0 |  0 |   0 |   0 |      --      | 2.114255e+00 |    Inf | unknown
r 0.1s|     1 |     0 |  1355 |     - |simplero|   0 | 777 |  77 |  77 |   0 |  0 |   0 |   0 |      --      | 1.369921e+00 |    Inf | unknown
r 0.1s|     1 |     0 |  1367 |     - |simplero|   0 | 777 |  77 |  77 |   0 |  0 |   0 |   0 |      --      | 1.355475e+00 |    Inf | unknown
r 0.1s|     1 |     0 |  1405 |     - |simplero|   0 | 788 |  77 |  77 |   0 |  0 |   0 |   0 |      --      | 9.716805e-01 |    Inf | unknown
  0.1s|     1 |     0 |  1415 |     - |  3750k |   0 | 788 |  77 |  77 |   0 |  0 |   0 |   0 |      --      | 9.716805e-01 |    Inf | unknown
r 0.1s|     1 |     0 |  1415 |     - |simplero|   0 | 788 |  77 |  77 |   0 |  0 |   0 |   0 |      --      | 9.540951e-01 |    Inf | unknown
r 0.1s|     1 |     0 |  1460 |     - |simplero|   0 | 799 |  77 |  77 |   0 |  0 |   0 |   0 |      --      | 5.575907e-01 |    Inf | unknown
r 0.1s|     1 |     0 |  1466 |     - |simplero|   0 | 799 |  77 |  77 |   0 |  0 |   0 |   0 |      --      | 5.549378e-01 |    Inf | unknown
r 0.1s|     1 |     0 |  1500 |     - |simplero|   0 | 810 |  77 |  77 |   0 |  0 |   0 |   0 |      --      | 2.852026e-01 |    Inf | unknown
r 0.1s|     1 |     0 |  1505 |     - |simplero|   0 | 810 |  77 |  77 |   0 |  0 |   0 |   0 |      --      | 2.679714e-01 |    Inf | unknown
r 0.1s|     1 |     0 |  1529 |     - |simplero|   0 | 821 |  77 |  77 |   0 |  0 |   0 |   0 |      --      | 1.031665e-01 |    Inf | unknown
r 0.1s|     1 |     0 |  1536 |     - |simplero|   0 | 821 |  77 |  77 |   0 |  0 |   0 |   0 |      --      | 9.882641e-02 |    Inf | unknown
r 0.1s|     1 |     0 |  1538 |     - |simplero|   0 | 821 |  77 |  77 |   0 |  0 |   0 |   0 |      --      | 9.812316e-02 |    Inf | unknown
r 0.1s|     1 |     0 |  1554 |     - |simplero|   0 | 832 |  77 |  77 |   0 |  0 |   0 |   0 |      --      | 0.000000e+00 |    Inf | unknown
 time | node  | left  |LP iter|LP it/n|mem/heur|mdpt |vars |cons |rows |cuts |sepa|confs|strbr|  dualbound   | primalbound  |  gap   | compl. 
  0.1s|     1 |     0 |  1554 |     - |  4419k |   0 | 832 |  77 |  77 |   0 |  0 |   0 |   0 | 0.000000e+00 | 0.000000e+00 |   0.00%| unknown
  0.1s|     1 |     0 |  1554 |     - |  4419k |   0 | 832 |  77 |  77 |   0 |  0 |   0 |   0 | 0.000000e+00 | 0.000000e+00 |   0.00%| unknown

SCIP Status        : problem is solved [optimal solution found]
Solving Time (sec) : 0.10
Solving Nodes      : 1
Primal Bound       : +0.00000000000000e+00 (43 solutions)
Dual Bound         : +0.00000000000000e+00
Gap                : 0.00 %

written transformed problem to file <results_rootrelaxation/bin012_050_028.srr.lp>
written transformed problem to file <results_rootrelaxation/bin012_050_028.srr.cip>

written solution information to file <results_rootrelaxation/bin012_050_028.srr.sol>



